Problem
 SPMETALS
Minimize
 VALUE:  3/100 BIN1 + 2/25 BIN2 + 17/100 BIN3 + 3/25 BIN4 + 3/20 BIN5 + 21/100 ALUM + 19/50 SILICON
Subject To
 YIELD:   BIN1 +  BIN2 +  BIN3 +  BIN4 +  BIN5 +  ALUM +  SILICON = 2000
 FE:  3/20 BIN1 + 1/25 BIN2 + 1/50 BIN3 + 1/25 BIN4 + 1/50 BIN5 + 1/100 ALUM + 3/100 SILICON <= 60
 MN:  1/50 BIN1 + 1/25 BIN2 + 1/100 BIN3 + 1/50 BIN4 + 1/50 BIN5 <= 40
 CU:  3/100 BIN1 + 1/20 BIN2 + 2/25 BIN3 + 1/50 BIN4 + 3/50 BIN5 + 1/100 ALUM <= 100
 MG:  1/50 BIN1 + 3/100 BIN2 + 1/100 BIN5 <= 30
 AL:  3/10 BIN1 + 3/4 BIN2 + 4/5 BIN3 + 3/4 BIN4 + 4/5 BIN5 + 97/100 ALUM >= 1500
 SI:  1/2 BIN1 + 3/50 BIN2 + 2/25 BIN3 + 3/25 BIN4 + 1/50 BIN5 + 1/100 ALUM + 97/100 SILICON >= 300 	\ RANGE (300, 350)
    1/2 BIN1 + 3/50 BIN2 + 2/25 BIN3 + 3/25 BIN4 + 1/50 BIN5 + 1/100 ALUM + 97/100 SILICON <= 350
Bounds
 BIN1 <= 200
 BIN2 <= 750
 400 <= BIN3 <= 800
 100 <= BIN4 <= 700
 BIN5 <= 1500
End
